rcpsp.fzn
predicate pumpkin_cumulative(array [int] of var int: s,array [int] of int: d,array [int] of int: r,int: b);
array [1..2] of int: X_INTRODUCED_121_ = [1,-1];
array [1..101] of int: X_INTRODUCED_200_ = [6,8,2,8,5,8,5,9,4,6,9,6,8,1,9,9,2,7,2,6,10,10,3,7,4,6,1,1,4,9,5,1,5,8,2,8,6,5,3,7,10,4,8,2,5,6,5,1,6,9,2,10,3,4,9,3,3,5,10,9,10,1,3,5,8,3,1,6,4,1,5,5,3,3,6,1,1,10,2,1,8,6,7,1,7,6,4,5,8,10,2,5,5,8,6,3,6,6,8,5,9];
array [1..101] of int: X_INTRODUCED_201_ = [1,9,1,1,10,4,1,4,5,4,3,5,4,8,4,3,2,1,10,3,7,1,1,1,1,6,5,3,1,1,5,4,1,1,4,1,10,1,3,3,3,1,7,4,1,5,1,3,3,5,2,5,1,10,1,1,1,8,1,4,4,2,4,1,1,3,5,4,10,1,1,4,1,7,1,4,5,2,1,3,1,6,1,3,7,1,1,1,1,1,4,1,9,1,4,1,4,10,2,1,1];
array [1..101] of int: X_INTRODUCED_202_ = [7,5,3,1,2,3,3,4,6,10,10,1,5,9,2,6,3,4,8,5,5,10,1,7,4,8,8,3,10,8,10,7,6,9,6,6,5,8,8,1,3,4,7,8,2,2,5,7,1,5,9,3,7,6,8,7,9,5,4,7,4,4,9,6,10,1,5,7,2,1,4,8,10,2,8,6,7,3,4,5,1,1,9,1,9,5,4,7,5,3,9,8,5,3,5,6,9,8,10,9,9];
array [1..101] of int: X_INTRODUCED_203_ = [6,9,10,9,5,1,4,7,10,5,5,6,10,4,4,10,6,6,6,1,9,9,8,1,5,5,4,5,1,2,9,4,8,10,8,10,10,6,1,5,10,3,9,8,10,10,7,6,2,1,10,9,2,1,1,7,8,10,7,6,6,7,2,5,2,4,6,9,9,9,3,3,10,9,7,10,7,8,2,4,5,6,9,9,3,7,1,6,5,8,5,9,10,9,7,7,4,3,10,8,6];
array [1..101] of int: X_INTRODUCED_204_ = [8,8,6,7,6,9,10,3,10,5,8,9,7,6,5,4,5,5,1,2,5,8,9,4,9,8,2,3,3,2,2,10,6,10,7,5,8,9,9,1,5,3,4,4,9,5,6,10,3,7,10,3,10,7,4,8,5,4,3,7,10,7,2,2,7,8,10,8,2,2,9,9,10,2,2,2,3,8,1,10,3,1,6,9,2,1,1,7,9,2,3,6,5,4,1,7,2,1,1,1,1];
array [1..101] of int: X_INTRODUCED_205_ = [6,1,8,2,5,7,9,1,2,8,1,1,7,3,4,3,10,1,3,7,9,10,2,8,4,7,6,7,9,7,4,1,10,8,7,3,1,3,6,4,2,8,1,9,1,7,2,5,6,6,6,7,7,9,6,10,5,3,9,10,8,1,10,10,6,2,3,8,8,3,5,5,10,1,5,3,1,7,2,10,5,1,1,3,5,4,7,9,3,2,1,9,10,9,9,9,10,4,1,7,9];
array [1..101] of int: X_INTRODUCED_206_ = [8,6,1,2,5,7,7,5,10,7,2,6,6,6,3,2,7,2,8,1,3,7,5,9,1,3,7,4,4,8,1,7,1,10,8,5,2,3,3,4,7,3,6,5,1,3,8,3,7,9,6,1,6,5,3,3,2,9,2,10,5,5,1,8,9,7,5,3,10,3,8,6,7,1,4,4,2,7,9,3,5,5,1,10,8,10,4,10,1,5,10,2,4,5,8,10,2,3,8,10,10];
var 0..334: X_INTRODUCED_17_;
var 0..334: X_INTRODUCED_18_;
var 0..334: X_INTRODUCED_19_;
var 0..334: X_INTRODUCED_20_;
var 0..334: X_INTRODUCED_21_;
var 0..334: X_INTRODUCED_22_;
var 0..334: X_INTRODUCED_23_;
var 0..334: X_INTRODUCED_24_;
var 0..334: X_INTRODUCED_25_;
var 0..334: X_INTRODUCED_26_;
var 0..334: X_INTRODUCED_27_;
var 0..334: X_INTRODUCED_28_;
var 0..334: X_INTRODUCED_29_;
var 0..334: X_INTRODUCED_30_;
var 0..334: X_INTRODUCED_31_;
var 0..334: X_INTRODUCED_32_;
var 0..334: X_INTRODUCED_33_;
var 0..334: X_INTRODUCED_34_;
var 0..334: X_INTRODUCED_35_;
var 0..334: X_INTRODUCED_36_;
var 0..334: X_INTRODUCED_37_;
var 0..334: X_INTRODUCED_38_;
var 0..334: X_INTRODUCED_39_;
var 0..334: X_INTRODUCED_40_;
var 0..334: X_INTRODUCED_41_;
var 0..334: X_INTRODUCED_42_;
var 0..334: X_INTRODUCED_43_;
var 0..334: X_INTRODUCED_44_;
var 0..334: X_INTRODUCED_45_;
var 0..334: X_INTRODUCED_46_;
var 0..334: X_INTRODUCED_47_;
var 0..334: X_INTRODUCED_48_;
var 0..334: X_INTRODUCED_49_;
var 0..334: X_INTRODUCED_50_;
var 0..334: X_INTRODUCED_51_;
var 0..334: X_INTRODUCED_52_;
var 0..334: X_INTRODUCED_53_;
var 0..334: X_INTRODUCED_54_;
var 0..334: X_INTRODUCED_55_;
var 0..334: X_INTRODUCED_56_;
var 0..334: X_INTRODUCED_57_;
var 0..334: X_INTRODUCED_58_;
var 0..334: X_INTRODUCED_59_;
var 0..334: X_INTRODUCED_60_;
var 0..334: X_INTRODUCED_61_;
var 0..334: X_INTRODUCED_62_;
var 0..334: X_INTRODUCED_63_;
var 0..334: X_INTRODUCED_64_;
var 0..334: X_INTRODUCED_65_;
var 0..334: X_INTRODUCED_66_;
var 0..334: X_INTRODUCED_67_;
var 0..334: X_INTRODUCED_68_;
var 0..334: X_INTRODUCED_69_;
var 0..334: X_INTRODUCED_70_;
var 0..334: X_INTRODUCED_71_;
var 0..334: X_INTRODUCED_72_;
var 0..334: X_INTRODUCED_73_;
var 0..334: X_INTRODUCED_74_;
var 0..334: X_INTRODUCED_75_;
var 0..334: X_INTRODUCED_76_;
var 0..334: X_INTRODUCED_77_;
var 0..334: X_INTRODUCED_78_;
var 0..334: X_INTRODUCED_79_;
var 0..334: X_INTRODUCED_80_;
var 0..334: X_INTRODUCED_81_;
var 0..334: X_INTRODUCED_82_;
var 0..334: X_INTRODUCED_83_;
var 0..334: X_INTRODUCED_84_;
var 0..334: X_INTRODUCED_85_;
var 0..334: X_INTRODUCED_86_;
var 0..334: X_INTRODUCED_87_;
var 0..334: X_INTRODUCED_88_;
var 0..334: X_INTRODUCED_89_;
var 0..334: X_INTRODUCED_90_;
var 0..334: X_INTRODUCED_91_;
var 0..334: X_INTRODUCED_92_;
var 0..334: X_INTRODUCED_93_;
var 0..334: X_INTRODUCED_94_;
var 0..334: X_INTRODUCED_95_;
var 0..334: X_INTRODUCED_96_;
var 0..334: X_INTRODUCED_97_;
var 0..334: X_INTRODUCED_98_;
var 0..334: X_INTRODUCED_99_;
var 0..334: X_INTRODUCED_100_;
var 0..334: X_INTRODUCED_101_;
var 0..334: X_INTRODUCED_102_;
var 0..334: X_INTRODUCED_103_;
var 0..334: X_INTRODUCED_104_;
var 0..334: X_INTRODUCED_105_;
var 0..334: X_INTRODUCED_106_;
var 0..334: X_INTRODUCED_107_;
var 0..334: X_INTRODUCED_108_;
var 0..334: X_INTRODUCED_109_;
var 0..334: X_INTRODUCED_110_;
var 0..334: X_INTRODUCED_111_;
var 0..334: X_INTRODUCED_112_;
var 0..334: X_INTRODUCED_113_;
var 0..334: X_INTRODUCED_114_;
var 0..334: X_INTRODUCED_115_;
var 0..334: X_INTRODUCED_116_;
var 0..334: X_INTRODUCED_117_;
var 0..335: objective:: output_var;
array [1..101] of var int: s:: output_array([1..101]) = [X_INTRODUCED_17_,X_INTRODUCED_18_,X_INTRODUCED_19_,X_INTRODUCED_20_,X_INTRODUCED_21_,X_INTRODUCED_22_,X_INTRODUCED_23_,X_INTRODUCED_24_,X_INTRODUCED_25_,X_INTRODUCED_26_,X_INTRODUCED_27_,X_INTRODUCED_28_,X_INTRODUCED_29_,X_INTRODUCED_30_,X_INTRODUCED_31_,X_INTRODUCED_32_,X_INTRODUCED_33_,X_INTRODUCED_34_,X_INTRODUCED_35_,X_INTRODUCED_36_,X_INTRODUCED_37_,X_INTRODUCED_38_,X_INTRODUCED_39_,X_INTRODUCED_40_,X_INTRODUCED_41_,X_INTRODUCED_42_,X_INTRODUCED_43_,X_INTRODUCED_44_,X_INTRODUCED_45_,X_INTRODUCED_46_,X_INTRODUCED_47_,X_INTRODUCED_48_,X_INTRODUCED_49_,X_INTRODUCED_50_,X_INTRODUCED_51_,X_INTRODUCED_52_,X_INTRODUCED_53_,X_INTRODUCED_54_,X_INTRODUCED_55_,X_INTRODUCED_56_,X_INTRODUCED_57_,X_INTRODUCED_58_,X_INTRODUCED_59_,X_INTRODUCED_60_,X_INTRODUCED_61_,X_INTRODUCED_62_,X_INTRODUCED_63_,X_INTRODUCED_64_,X_INTRODUCED_65_,X_INTRODUCED_66_,X_INTRODUCED_67_,X_INTRODUCED_68_,X_INTRODUCED_69_,X_INTRODUCED_70_,X_INTRODUCED_71_,X_INTRODUCED_72_,X_INTRODUCED_73_,X_INTRODUCED_74_,X_INTRODUCED_75_,X_INTRODUCED_76_,X_INTRODUCED_77_,X_INTRODUCED_78_,X_INTRODUCED_79_,X_INTRODUCED_80_,X_INTRODUCED_81_,X_INTRODUCED_82_,X_INTRODUCED_83_,X_INTRODUCED_84_,X_INTRODUCED_85_,X_INTRODUCED_86_,X_INTRODUCED_87_,X_INTRODUCED_88_,X_INTRODUCED_89_,X_INTRODUCED_90_,X_INTRODUCED_91_,X_INTRODUCED_92_,X_INTRODUCED_93_,X_INTRODUCED_94_,X_INTRODUCED_95_,X_INTRODUCED_96_,X_INTRODUCED_97_,X_INTRODUCED_98_,X_INTRODUCED_99_,X_INTRODUCED_100_,X_INTRODUCED_101_,X_INTRODUCED_102_,X_INTRODUCED_103_,X_INTRODUCED_104_,X_INTRODUCED_105_,X_INTRODUCED_106_,X_INTRODUCED_107_,X_INTRODUCED_108_,X_INTRODUCED_109_,X_INTRODUCED_110_,X_INTRODUCED_111_,X_INTRODUCED_112_,X_INTRODUCED_113_,X_INTRODUCED_114_,X_INTRODUCED_115_,X_INTRODUCED_116_,X_INTRODUCED_117_];
array [1..102] of var int: X_INTRODUCED_229_ ::var_is_introduced  = [X_INTRODUCED_17_,X_INTRODUCED_18_,X_INTRODUCED_19_,X_INTRODUCED_20_,X_INTRODUCED_21_,X_INTRODUCED_22_,X_INTRODUCED_23_,X_INTRODUCED_24_,X_INTRODUCED_25_,X_INTRODUCED_26_,X_INTRODUCED_27_,X_INTRODUCED_28_,X_INTRODUCED_29_,X_INTRODUCED_30_,X_INTRODUCED_31_,X_INTRODUCED_32_,X_INTRODUCED_33_,X_INTRODUCED_34_,X_INTRODUCED_35_,X_INTRODUCED_36_,X_INTRODUCED_37_,X_INTRODUCED_38_,X_INTRODUCED_39_,X_INTRODUCED_40_,X_INTRODUCED_41_,X_INTRODUCED_42_,X_INTRODUCED_43_,X_INTRODUCED_44_,X_INTRODUCED_45_,X_INTRODUCED_46_,X_INTRODUCED_47_,X_INTRODUCED_48_,X_INTRODUCED_49_,X_INTRODUCED_50_,X_INTRODUCED_51_,X_INTRODUCED_52_,X_INTRODUCED_53_,X_INTRODUCED_54_,X_INTRODUCED_55_,X_INTRODUCED_56_,X_INTRODUCED_57_,X_INTRODUCED_58_,X_INTRODUCED_59_,X_INTRODUCED_60_,X_INTRODUCED_61_,X_INTRODUCED_62_,X_INTRODUCED_63_,X_INTRODUCED_64_,X_INTRODUCED_65_,X_INTRODUCED_66_,X_INTRODUCED_67_,X_INTRODUCED_68_,X_INTRODUCED_69_,X_INTRODUCED_70_,X_INTRODUCED_71_,X_INTRODUCED_72_,X_INTRODUCED_73_,X_INTRODUCED_74_,X_INTRODUCED_75_,X_INTRODUCED_76_,X_INTRODUCED_77_,X_INTRODUCED_78_,X_INTRODUCED_79_,X_INTRODUCED_80_,X_INTRODUCED_81_,X_INTRODUCED_82_,X_INTRODUCED_83_,X_INTRODUCED_84_,X_INTRODUCED_85_,X_INTRODUCED_86_,X_INTRODUCED_87_,X_INTRODUCED_88_,X_INTRODUCED_89_,X_INTRODUCED_90_,X_INTRODUCED_91_,X_INTRODUCED_92_,X_INTRODUCED_93_,X_INTRODUCED_94_,X_INTRODUCED_95_,X_INTRODUCED_96_,X_INTRODUCED_97_,X_INTRODUCED_98_,X_INTRODUCED_99_,X_INTRODUCED_100_,X_INTRODUCED_101_,X_INTRODUCED_102_,X_INTRODUCED_103_,X_INTRODUCED_104_,X_INTRODUCED_105_,X_INTRODUCED_106_,X_INTRODUCED_107_,X_INTRODUCED_108_,X_INTRODUCED_109_,X_INTRODUCED_110_,X_INTRODUCED_111_,X_INTRODUCED_112_,X_INTRODUCED_113_,X_INTRODUCED_114_,X_INTRODUCED_115_,X_INTRODUCED_116_,X_INTRODUCED_117_,objective];
constraint int_lin_le(X_INTRODUCED_121_,[X_INTRODUCED_17_,X_INTRODUCED_22_],-1);
constraint int_lin_le(X_INTRODUCED_121_,[X_INTRODUCED_18_,X_INTRODUCED_20_],-9);
constraint int_lin_le(X_INTRODUCED_121_,[X_INTRODUCED_18_,X_INTRODUCED_21_],-9);
constraint int_lin_le(X_INTRODUCED_121_,[X_INTRODUCED_19_,X_INTRODUCED_23_],-1);
constraint int_lin_le(X_INTRODUCED_121_,[X_INTRODUCED_20_,X_INTRODUCED_24_],-1);
constraint int_lin_le(X_INTRODUCED_121_,[X_INTRODUCED_20_,X_INTRODUCED_25_],-1);
constraint int_lin_le(X_INTRODUCED_121_,[X_INTRODUCED_21_,X_INTRODUCED_26_],-10);
constraint int_lin_le(X_INTRODUCED_121_,[X_INTRODUCED_21_,X_INTRODUCED_27_],-10);
constraint int_lin_le(X_INTRODUCED_121_,[X_INTRODUCED_24_,X_INTRODUCED_31_],-4);
constraint int_lin_le(X_INTRODUCED_121_,[X_INTRODUCED_25_,X_INTRODUCED_28_],-5);
constraint int_lin_le(X_INTRODUCED_121_,[X_INTRODUCED_25_,X_INTRODUCED_29_],-5);
constraint int_lin_le(X_INTRODUCED_121_,[X_INTRODUCED_27_,X_INTRODUCED_30_],-3);
constraint int_lin_le(X_INTRODUCED_121_,[X_INTRODUCED_28_,X_INTRODUCED_34_],-5);
constraint int_lin_le(X_INTRODUCED_121_,[X_INTRODUCED_29_,X_INTRODUCED_32_],-4);
constraint int_lin_le(X_INTRODUCED_121_,[X_INTRODUCED_30_,X_INTRODUCED_35_],-8);
constraint int_lin_le(X_INTRODUCED_121_,[X_INTRODUCED_31_,X_INTRODUCED_33_],-4);
constraint int_lin_le(X_INTRODUCED_121_,[X_INTRODUCED_32_,X_INTRODUCED_39_],-3);
constraint int_lin_le(X_INTRODUCED_121_,[X_INTRODUCED_33_,X_INTRODUCED_36_],-2);
constraint int_lin_le(X_INTRODUCED_121_,[X_INTRODUCED_35_,X_INTRODUCED_37_],-10);
constraint int_lin_le(X_INTRODUCED_121_,[X_INTRODUCED_35_,X_INTRODUCED_38_],-10);
constraint int_lin_le(X_INTRODUCED_121_,[X_INTRODUCED_36_,X_INTRODUCED_41_],-3);
constraint int_lin_le(X_INTRODUCED_121_,[X_INTRODUCED_37_,X_INTRODUCED_42_],-7);
constraint int_lin_le(X_INTRODUCED_121_,[X_INTRODUCED_39_,X_INTRODUCED_40_],-1);
constraint int_lin_le(X_INTRODUCED_121_,[X_INTRODUCED_39_,X_INTRODUCED_43_],-1);
constraint int_lin_le(X_INTRODUCED_121_,[X_INTRODUCED_40_,X_INTRODUCED_47_],-1);
constraint int_lin_le(X_INTRODUCED_121_,[X_INTRODUCED_41_,X_INTRODUCED_45_],-1);
constraint int_lin_le(X_INTRODUCED_121_,[X_INTRODUCED_42_,X_INTRODUCED_44_],-6);
constraint int_lin_le(X_INTRODUCED_121_,[X_INTRODUCED_42_,X_INTRODUCED_46_],-6);
constraint int_lin_le(X_INTRODUCED_121_,[X_INTRODUCED_44_,X_INTRODUCED_48_],-3);
constraint int_lin_le(X_INTRODUCED_121_,[X_INTRODUCED_44_,X_INTRODUCED_50_],-3);
constraint int_lin_le(X_INTRODUCED_121_,[X_INTRODUCED_45_,X_INTRODUCED_49_],-1);
constraint int_lin_le(X_INTRODUCED_121_,[X_INTRODUCED_45_,X_INTRODUCED_51_],-1);
constraint int_lin_le(X_INTRODUCED_121_,[X_INTRODUCED_48_,X_INTRODUCED_53_],-4);
constraint int_lin_le(X_INTRODUCED_121_,[X_INTRODUCED_49_,X_INTRODUCED_52_],-1);
constraint int_lin_le(X_INTRODUCED_121_,[X_INTRODUCED_49_,X_INTRODUCED_55_],-1);
constraint int_lin_le(X_INTRODUCED_121_,[X_INTRODUCED_51_,X_INTRODUCED_54_],-4);
constraint int_lin_le(X_INTRODUCED_121_,[X_INTRODUCED_52_,X_INTRODUCED_57_],-1);
constraint int_lin_le(X_INTRODUCED_121_,[X_INTRODUCED_53_,X_INTRODUCED_59_],-10);
constraint int_lin_le(X_INTRODUCED_121_,[X_INTRODUCED_54_,X_INTRODUCED_56_],-1);
constraint int_lin_le(X_INTRODUCED_121_,[X_INTRODUCED_55_,X_INTRODUCED_58_],-3);
constraint int_lin_le(X_INTRODUCED_121_,[X_INTRODUCED_56_,X_INTRODUCED_62_],-3);
constraint int_lin_le(X_INTRODUCED_121_,[X_INTRODUCED_57_,X_INTRODUCED_61_],-3);
constraint int_lin_le(X_INTRODUCED_121_,[X_INTRODUCED_59_,X_INTRODUCED_60_],-7);
constraint int_lin_le(X_INTRODUCED_121_,[X_INTRODUCED_59_,X_INTRODUCED_63_],-7);
constraint int_lin_le(X_INTRODUCED_121_,[X_INTRODUCED_60_,X_INTRODUCED_66_],-4);
constraint int_lin_le(X_INTRODUCED_121_,[X_INTRODUCED_62_,X_INTRODUCED_64_],-5);
constraint int_lin_le(X_INTRODUCED_121_,[X_INTRODUCED_62_,X_INTRODUCED_67_],-5);
constraint int_lin_le(X_INTRODUCED_121_,[X_INTRODUCED_63_,X_INTRODUCED_65_],-1);
constraint int_lin_le(X_INTRODUCED_121_,[X_INTRODUCED_64_,X_INTRODUCED_68_],-3);
constraint int_lin_le(X_INTRODUCED_121_,[X_INTRODUCED_66_,X_INTRODUCED_70_],-5);
constraint int_lin_le(X_INTRODUCED_121_,[X_INTRODUCED_66_,X_INTRODUCED_71_],-5);
constraint int_lin_le(X_INTRODUCED_121_,[X_INTRODUCED_67_,X_INTRODUCED_69_],-2);
constraint int_lin_le(X_INTRODUCED_121_,[X_INTRODUCED_68_,X_INTRODUCED_73_],-5);
constraint int_lin_le(X_INTRODUCED_121_,[X_INTRODUCED_69_,X_INTRODUCED_75_],-1);
constraint int_lin_le(X_INTRODUCED_121_,[X_INTRODUCED_70_,X_INTRODUCED_72_],-10);
constraint int_lin_le(X_INTRODUCED_121_,[X_INTRODUCED_70_,X_INTRODUCED_74_],-10);
constraint int_lin_le(X_INTRODUCED_121_,[X_INTRODUCED_72_,X_INTRODUCED_79_],-1);
constraint int_lin_le(X_INTRODUCED_121_,[X_INTRODUCED_73_,X_INTRODUCED_76_],-1);
constraint int_lin_le(X_INTRODUCED_121_,[X_INTRODUCED_74_,X_INTRODUCED_77_],-8);
constraint int_lin_le(X_INTRODUCED_121_,[X_INTRODUCED_74_,X_INTRODUCED_78_],-8);
constraint int_lin_le(X_INTRODUCED_121_,[X_INTRODUCED_76_,X_INTRODUCED_81_],-4);
constraint int_lin_le(X_INTRODUCED_121_,[X_INTRODUCED_76_,X_INTRODUCED_82_],-4);
constraint int_lin_le(X_INTRODUCED_121_,[X_INTRODUCED_77_,X_INTRODUCED_80_],-4);
constraint int_lin_le(X_INTRODUCED_121_,[X_INTRODUCED_78_,X_INTRODUCED_83_],-2);
constraint int_lin_le(X_INTRODUCED_121_,[X_INTRODUCED_80_,X_INTRODUCED_87_],-1);
constraint int_lin_le(X_INTRODUCED_121_,[X_INTRODUCED_81_,X_INTRODUCED_86_],-1);
constraint int_lin_le(X_INTRODUCED_121_,[X_INTRODUCED_83_,X_INTRODUCED_84_],-5);
constraint int_lin_le(X_INTRODUCED_121_,[X_INTRODUCED_83_,X_INTRODUCED_85_],-5);
constraint int_lin_le(X_INTRODUCED_121_,[X_INTRODUCED_84_,X_INTRODUCED_91_],-4);
constraint int_lin_le(X_INTRODUCED_121_,[X_INTRODUCED_85_,X_INTRODUCED_88_],-10);
constraint int_lin_le(X_INTRODUCED_121_,[X_INTRODUCED_85_,X_INTRODUCED_89_],-10);
constraint int_lin_le(X_INTRODUCED_121_,[X_INTRODUCED_85_,X_INTRODUCED_90_],-10);
constraint int_lin_le(X_INTRODUCED_121_,[X_INTRODUCED_88_,X_INTRODUCED_93_],-4);
constraint int_lin_le(X_INTRODUCED_121_,[X_INTRODUCED_88_,X_INTRODUCED_94_],-4);
constraint int_lin_le(X_INTRODUCED_121_,[X_INTRODUCED_89_,X_INTRODUCED_92_],-1);
constraint int_lin_le(X_INTRODUCED_121_,[X_INTRODUCED_91_,X_INTRODUCED_95_],-1);
constraint int_lin_le(X_INTRODUCED_121_,[X_INTRODUCED_92_,X_INTRODUCED_97_],-4);
constraint int_lin_le(X_INTRODUCED_121_,[X_INTRODUCED_92_,X_INTRODUCED_98_],-4);
constraint int_lin_le(X_INTRODUCED_121_,[X_INTRODUCED_94_,X_INTRODUCED_96_],-2);
constraint int_lin_le(X_INTRODUCED_121_,[X_INTRODUCED_95_,X_INTRODUCED_99_],-1);
constraint int_lin_le(X_INTRODUCED_121_,[X_INTRODUCED_96_,X_INTRODUCED_101_],-3);
constraint int_lin_le(X_INTRODUCED_121_,[X_INTRODUCED_97_,X_INTRODUCED_100_],-1);
constraint int_lin_le(X_INTRODUCED_121_,[X_INTRODUCED_98_,X_INTRODUCED_101_],-6);
constraint int_lin_le(X_INTRODUCED_121_,[X_INTRODUCED_99_,X_INTRODUCED_102_],-1);
constraint int_lin_le(X_INTRODUCED_121_,[X_INTRODUCED_99_,X_INTRODUCED_103_],-1);
constraint int_lin_le(X_INTRODUCED_121_,[X_INTRODUCED_100_,X_INTRODUCED_104_],-3);
constraint int_lin_le(X_INTRODUCED_121_,[X_INTRODUCED_101_,X_INTRODUCED_106_],-7);
constraint int_lin_le(X_INTRODUCED_121_,[X_INTRODUCED_102_,X_INTRODUCED_105_],-1);
constraint int_lin_le(X_INTRODUCED_121_,[X_INTRODUCED_102_,X_INTRODUCED_106_],-1);
constraint int_lin_le(X_INTRODUCED_121_,[X_INTRODUCED_103_,X_INTRODUCED_107_],-1);
constraint int_lin_le(X_INTRODUCED_121_,[X_INTRODUCED_104_,X_INTRODUCED_108_],-1);
constraint int_lin_le(X_INTRODUCED_121_,[X_INTRODUCED_104_,X_INTRODUCED_110_],-1);
constraint int_lin_le(X_INTRODUCED_121_,[X_INTRODUCED_104_,X_INTRODUCED_111_],-1);
constraint int_lin_le(X_INTRODUCED_121_,[X_INTRODUCED_105_,X_INTRODUCED_110_],-1);
constraint int_lin_le(X_INTRODUCED_121_,[X_INTRODUCED_106_,X_INTRODUCED_109_],-1);
constraint int_lin_le(X_INTRODUCED_121_,[X_INTRODUCED_107_,X_INTRODUCED_111_],-4);
constraint int_lin_le(X_INTRODUCED_121_,[X_INTRODUCED_108_,X_INTRODUCED_115_],-1);
constraint int_lin_le(X_INTRODUCED_121_,[X_INTRODUCED_109_,X_INTRODUCED_114_],-9);
constraint int_lin_le(X_INTRODUCED_121_,[X_INTRODUCED_110_,X_INTRODUCED_113_],-1);
constraint int_lin_le(X_INTRODUCED_121_,[X_INTRODUCED_110_,X_INTRODUCED_115_],-1);
constraint int_lin_le(X_INTRODUCED_121_,[X_INTRODUCED_111_,X_INTRODUCED_112_],-4);
constraint int_lin_le(X_INTRODUCED_121_,[X_INTRODUCED_112_,X_INTRODUCED_116_],-1);
constraint int_lin_le(X_INTRODUCED_121_,[X_INTRODUCED_113_,X_INTRODUCED_117_],-4);
constraint int_lin_le(X_INTRODUCED_121_,[X_INTRODUCED_114_,X_INTRODUCED_117_],-10);
constraint int_lin_le(X_INTRODUCED_121_,[X_INTRODUCED_115_,X_INTRODUCED_116_],-2);
constraint pumpkin_cumulative(s,X_INTRODUCED_201_,X_INTRODUCED_200_,11);
constraint pumpkin_cumulative(s,X_INTRODUCED_201_,X_INTRODUCED_202_,12);
constraint pumpkin_cumulative(s,X_INTRODUCED_201_,X_INTRODUCED_203_,13);
constraint pumpkin_cumulative(s,X_INTRODUCED_201_,X_INTRODUCED_204_,12);
constraint pumpkin_cumulative(s,X_INTRODUCED_201_,X_INTRODUCED_205_,11);
constraint pumpkin_cumulative(s,X_INTRODUCED_201_,X_INTRODUCED_206_,11);
constraint int_lin_le(X_INTRODUCED_121_,[X_INTRODUCED_22_,objective],-4);
constraint int_lin_le(X_INTRODUCED_121_,[X_INTRODUCED_23_,objective],-1);
constraint int_lin_le(X_INTRODUCED_121_,[X_INTRODUCED_26_,objective],-4);
constraint int_lin_le(X_INTRODUCED_121_,[X_INTRODUCED_34_,objective],-1);
constraint int_lin_le(X_INTRODUCED_121_,[X_INTRODUCED_38_,objective],-1);
constraint int_lin_le(X_INTRODUCED_121_,[X_INTRODUCED_43_,objective],-5);
constraint int_lin_le(X_INTRODUCED_121_,[X_INTRODUCED_46_,objective],-1);
constraint int_lin_le(X_INTRODUCED_121_,[X_INTRODUCED_47_,objective],-5);
constraint int_lin_le(X_INTRODUCED_121_,[X_INTRODUCED_50_,objective],-1);
constraint int_lin_le(X_INTRODUCED_121_,[X_INTRODUCED_58_,objective],-1);
constraint int_lin_le(X_INTRODUCED_121_,[X_INTRODUCED_61_,objective],-1);
constraint int_lin_le(X_INTRODUCED_121_,[X_INTRODUCED_65_,objective],-3);
constraint int_lin_le(X_INTRODUCED_121_,[X_INTRODUCED_71_,objective],-1);
constraint int_lin_le(X_INTRODUCED_121_,[X_INTRODUCED_75_,objective],-1);
constraint int_lin_le(X_INTRODUCED_121_,[X_INTRODUCED_79_,objective],-4);
constraint int_lin_le(X_INTRODUCED_121_,[X_INTRODUCED_82_,objective],-3);
constraint int_lin_le(X_INTRODUCED_121_,[X_INTRODUCED_86_,objective],-1);
constraint int_lin_le(X_INTRODUCED_121_,[X_INTRODUCED_87_,objective],-1);
constraint int_lin_le(X_INTRODUCED_121_,[X_INTRODUCED_90_,objective],-7);
constraint int_lin_le(X_INTRODUCED_121_,[X_INTRODUCED_93_,objective],-5);
constraint int_lin_le(X_INTRODUCED_121_,[X_INTRODUCED_116_,objective],-1);
constraint int_lin_le(X_INTRODUCED_121_,[X_INTRODUCED_117_,objective],-1);
solve :: int_search(X_INTRODUCED_229_,smallest,indomain_min,complete) minimize objective;
